000 000 000 000 000 000 000 000 -99 -99 -99 -99 -99 000 000 -99 -99 -99 000 000 000 000 000 000 000 000 -99 000 -99 -99 000
000 000 000 000 000 000 000 000 000 -99 -99 -99 -99 000 000 000 -99 -99 -99 000 000 000 000 000 000 000 000 000 -99 -99 000
000 000 000 000 000 000 000 000 000 000 -99 -99 -99 -99 000 000 -99 000 -99 000 000 000 000 000 000 000 000 000 000 -99 000
000 000 000 000 000 000 000 000 000 -99 -99 -99 -99 -99 -99 -99 000 000 000 000 000 000 000 000 000 000 000 000 -99 -99 -99
000 000 000 000 000 000 000 000 000 -99 -99 000 000 000 -99 -99 000 000 000 000 000 000 000 000 000 001 000 000 000 -99 -99
000 000 000 000 000 000 000 000 000 000 000 000 000 000 000 -99 000 000 000 000 000 000 000 001 001 001 001 -99 -99 -99 -99
000 000 000 000 000 000 000 000 000 000 000 000 000 000 000 000 000 000 000 001 001 000 000 002 003 001 002 -99 -99 -99 -99
000 000 000 000 000 000 000 000 000 000 000 001 001 000 000 000 000 000 000 001 000 001 002 002 004 001 001 -99 -99 000 000
000 000 000 000 000 000 000 000 000 001 002 003 002 002 000 000 000 000 000 000 000 001 001 002 002 002 001 000 -99 001 000
000 000 000 000 000 000 000 000 001 003 005 005 001 000 000 000 000 000 000 000 000 000 000 001 002 001 003 000 000 001 000
000 000 000 000 000 000 000 000 001 003 005 005 003 001 000 000 000 000 000 000 000 000 001 001 001 002 003 000 000 001 001
000 000 000 000 000 000 000 000 001 002 004 003 001 000 000 000 000 000 000 000 000 000 001 002 001 003 003 000 000 001 001
000 000 000 000 000 000 000 000 000 001 001 001 000 000 000 000 000 000 000 001 000 000 002 003 002 001 001 000 000 000 000
000 000 000 000 000 000 000 000 000 000 001 000 000 000 000 000 000 000 000 000 001 000 004 004 002 002 001 000 000 -99 000
000 000 000 000 000 000 000 000 000 000 000 000 000 000 000 000 000 000 000 000 000 000 007 004 003 002 001 000 000 000 000
001 000 000 000 000 000 000 000 000 000 000 000 000 000 000 000 000 000 000 000 001 001 006 003 003 002 001 000 000 000 000
002 000 000 000 000 000 000 000 000 000 -99 -99 -99 000 000 000 000 000 000 000 001 003 009 007 003 002 001 001 000 000 000
002 000 000 000 000 000 000 000 000 -99 -99 -99 -99 000 000 000 000 000 000 000 001 005 006 003 002 001 002 000 001 000 000
001 000 000 000 000 -99 000 000 000 -99 -99 000 -99 000 000 000 000 000 000 000 000 001 003 002 001 002 001 001 001 000 001
002 000 000 000 -99 -99 000 000 000 -99 000 000 -99 000 000 000 000 000 000 000 000 000 001 002 001 001 000 -99 -99 000 000
001 000 000 000 000 -99 -99 000 000 000 -99 -99 -99 000 000 000 000 000 000 000 000 000 001 001 -99 001 000 -99 -99 -99 -99
001 000 000 000 000 000 000 000 000 000 -99 -99 -99 000 000 000 000 000 000 000 000 000 001 001 -99 001 000 -99 -99 -99 -99
002 000 000 000 000 000 000 000 000 000 -99 -99 -99 000 000 000 000 000 000 000 000 000 000 -99 -99 -99 -99 -99 -99 -99 001
000 000 000 000 000 000 000 000 000 000 -99 -99 000 000 000 000 000 000 000 000 000 000 001 -99 -99 -99 -99 -99 -99 001 001
000 000 000 000 000 000 000 -99 000 -99 -99 -99 000 000 000 000 000 000 000 000 000 000 001 -99 -99 -99 -99 -99 -99 001 001
000 000 000 000 000 000 000 000 000 000 -99 -99 000 000 000 000 000 000 000 000 000 000 001 -99 -99 -99 -99 -99 -99 002 001
000 000 000 000 000 000 000 000 000 000 000 000 000 000 000 000 000 000 000 000 000 000 001 -99 -99 -99 -99 -99 -99 001 001
000 000 000 000 000 000 000 000 000 000 000 000 000 -99 000 000 000 000 000 000 000 000 000 -99 -99 -99 -99 -99 001 001 000
000 000 001 000 000 000 000 000 000 000 000 000 000 000 000 000 000 000 000 -99 000 000 -99 -99 -99 -99 -99 -99 001 000 000
000 000 000 000 000 000 000 000 000 000 000 000 000 000 000 000 000 000 000 000 -99 -99 -99 -99 -99 -99 -99 000 000 -99 000
000 000 000 000 000 000 000 000 000 000 000 000 000 000 000 000 000 000 000 000 -99 -99 -99 -99 -99 -99 -99 000 000 -99 000
000 000 000 000 000 000 000 000 000 000 000 -99 -99 000 -99 -99 000 000 000 -99 -99 -99 -99 000 000 000 -99 000 000 -99 000
000 000 000 000 000 000 000 000 000 000 -99 -99 -99 -99 000 -99 000 000 000 -99 -99 -99 -99 000 000 000 000 000 000 000 000
000 000 000 000 000 000 000 000 000 -99 -99 -99 -99 000 000 000 000 000 000 -99 -99 -99 -99 000 000 000 000 000 000 000 000
000 000 000 000 000 000 000 000 000 -99 -99 -99 000 000 000 000 000 000 000 -99 -99 -99 000 000 000 000 000 000 000 000 000
000 000 000 000 000 000 000 000 000 000 000 000 000 000 000 000 000 000 -99 000 000 000 000 000 000 000 000 000 000 000 000
000 000 000 000 000 000 000 000 000 000 000 000 000 000 000 000 000 000 -99 000 000 000 000 000 000 000 000 000 000 000 000
000 000 000 000 000 000 000 000 000 000 -99 000 000 000 000 000 000 000 000 000 000 000 000 000 000 000 000 000 000 000 000
000 000 000 000 000 000 000 000 000 000 -99 000 000 000 000 000 000 000 000 000 000 000 000 000 000 -99 000 000 000 000 000
000 000 000 000 000 -99 -99 -99 -99 -99 -99 000 000 000 000 000 000 000 000 000 000 000 000 000 000 000 000 000 000 000 000
000 000 -99 000 000 -99 -99 -99 -99 000 000 000 000 000 000 000 000 -99 000 000 000 000 000 000 000 000 000 000 -99 000 000
000 000 -99 -99 -99 -99 -99 000 -99 000 000 000 000 000 000 000 -99 000 000 000 000 000 000 000 000 000 000 -99 -99 000 000
000 000 -99 -99 000 000 -99 000 000 000 000 000 000 000 000 000 000 000 000 000 000 000 000 000 000 000 000 -99 -99 000 000
000 000 -99 -99 -99 000 000 000 000 000 000 000 000 000 000 000 000 000 000 000 000 000 000 000 000 000 000 000 000 -99 000
000 000 -99 -99 000 -99 000 000 -99 -99 000 000 000 000 000 000 000 000 000 000 000 000 000 000 000 000 000 000 -99 -99 000
-99 -99 -99 000 -99 -99 -99 000 -99 000 000 000 000 000 000 000 000 000 000 000 000 000 000 000 000 -99 000 000 -99 000 000
000 -99 -99 000 000 -99 -99 -99 -99 -99 000 000 000 000 000 000 000 000 000 000 000 000 000 000 000 000 000 -99 000 000 000
-99 -99 -99 000 -99 -99 -99 -99 -99 000 000 000 000 000 000 -99 -99 000 000 000 000 000 000 000 000 000 -99 000 000 000 000
-99 -99 -99 -99 -99 -99 -99 -99 -99 -99 -99 -99 000 000 000 -99 -99 000 000 000 000 000 000 000 000 000 -99 000 000 000 000
-99 -99 -99 -99 -99 -99 -99 -99 -99 -99 -99 000 000 000 000 -99 000 000 000 000 000 000 000 000 000 -99 000 000 000 000 000
-99 -99 -99 -99 -99 -99 -99 -99 -99 -99 -99 -99 000 000 000 -99 -99 000 -99 000 000 000 000 000 -99 -99 000 000 000 000 000
-99 -99 -99 -99 -99 000 -99 -99 -99 -99 -99 -99 000 000 -99 -99 -99 -99 -99 000 -99 -99 000 -99 -99 000 -99 -99 -99 000 000
-99 -99 -99 -99 000 -99 -99 -99 -99 -99 -99 -99 -99 -99 -99 -99 -99 000 000 -99 -99 -99 -99 -99 000 -99 -99 -99 -99 000 000
-99 -99 -99 -99 -99 -99 -99 -99 -99 -99 -99 -99 -99 -99 -99 -99 -99 000 000 -99 -99 -99 -99 -99 -99 -99 -99 -99 000 000 000
-99 -99 -99 -99 -99 -99 000 000 -99 -99 -99 -99 -99 -99 -99 -99 -99 -99 -99 -99 -99 -99 -99 -99 -99 -99 -99 -99 000 -99 -99
